networks/zoo_55_702/zoo_55_702-lower.txt
Number of groups: 27
Flow 1: {1 14 0} {14 2 0} {2 30 0} 
Flow 2: {21 3 0} {3 31 0} 
Flow 2: {14 21 0} Flow 3: {23 4 0} {4 32 0} 
Flow 3: {21 15 0} {15 11 0} {11 10 0} {10 23 0} Flow 4: {15 5 0} {5 33 0} 
Flow 5: {26 6 0} {6 34 0} 
Flow 5: {14 26 0} Flow 6: {14 7 0} {7 35 0} 
Flow 7: {21 8 0} {8 36 0} 
Flow 8: {25 12 0} {12 9 0} {9 37 0} 
Flow 8: {21 25 0} Flow 9: {10 38 0} 
Flow 10: {11 39 0} 
Flow 11: {12 40 0} 
Flow 12: {25 13 0} {13 41 0} 
Flow 13: {14 42 0} 
Flow 14: {15 43 0} 
Flow 15: {14 17 0} {17 16 0} {16 44 0} 
Flow 16: {17 45 0} 
Flow 17: {21 20 0} {20 18 0} {18 46 0} 
Flow 18: {16 19 0} {19 47 0} 
Flow 19: {20 48 0} 
Flow 20: {21 49 0} 
Flow 21: {23 22 0} {22 50 0} 
Flow 22: {23 51 0} 
Flow 23: {21 24 0} {24 52 0} 
Flow 24: {25 53 0} 
Flow 25: {26 54 0} 
Flow 26: {21 27 0} {27 55 0} 
Flow 27: {14 1 0} {1 29 0} 
Flow 27: {2 14 0} Flow 53: {3 21 0} {21 14 0} Flow 67: {21 16 0} Flow 79: {4 23 0} {23 10 0} {10 11 0} {11 15 0} {15 21 0} Flow 86: {15 25 0} Flow 93: {15 16 0} Flow 94: {16 17 0} Flow 105: {5 15 0} Flow 131: {6 26 0} {26 14 0} Flow 157: {7 14 0} Flow 183: {8 21 0} Flow 209: {9 12 0} {12 25 0} {25 21 0} Flow 212: {25 15 0} Flow 313: {13 25 0} Flow 391: {17 14 0} Flow 393: {16 21 0} Flow 394: {16 15 0} Flow 443: {18 20 0} {20 21 0} Flow 469: {19 16 0} Flow 547: {22 23 0} Flow 599: {24 21 0} Flow 677: {27 21 0} Time taken running everything: 0 seconds
