networks/zoo_55_702/zoo_55_702-lower.sol
<?xml version = "1.0" encoding="UTF-8" standalone="yes"?>
<CPLEXSolution version="1.2">
 <header
   problemName="networks/zoo_55_702/zoo_55_702-lower.lp"
   solutionName="incumbent"
   solutionIndex="-1"
   objectiveValue="27"
   solutionTypeValue="3"
   solutionTypeString="primal"
   solutionStatusValue="101"
   solutionStatusString="integer optimal solution"
   solutionMethodString="mip"
   primalFeasible="1"
   dualFeasible="1"
   MIPNodes="0"
   MIPIterations="1237"
   writeLevel="3"/>
 <quality
   epInt="1.0000000000000001e-05"
   epRHS="9.9999999999999995e-07"
   maxIntInfeas="0"
   maxPrimalInfeas="0"
   maxX="1"
   maxSlack="1"/>
 <variables>
  <variable name="Y(25,26)" index="1321" value="1"/>
  <variable name="Y(44,19)" index="2340" value="1"/>
  <variable name="Y(76,25)" index="4074" value="1"/>
  <variable name="Y(99,22)" index="5313" value="1"/>
  <variable name="Y(116,13)" index="6222" value="1"/>
  <variable name="Y(147,18)" index="7901" value="1"/>
  <variable name="Y(157,1)" index="8424" value="1"/>
  <variable name="Y(195,14)" index="10489" value="1"/>
  <variable name="Y(219,12)" index="11783" value="1"/>
  <variable name="Y(260,27)" index="14012" value="1"/>
  <variable name="Y(302,17)" index="16270" value="1"/>
  <variable name="Y(335,24)" index="18059" value="1"/>
  <variable name="Y(345,7)" index="18582" value="1"/>
  <variable name="Y(347,9)" index="18692" value="1"/>
  <variable name="Y(369,5)" index="19876" value="1"/>
  <variable name="Y(410,21)" index="22106" value="1"/>
  <variable name="Y(418,2)" index="22519" value="1"/>
  <variable name="Y(450,8)" index="24253" value="1"/>
  <variable name="Y(461,20)" index="24859" value="1"/>
  <variable name="Y(483,15)" index="26042" value="1"/>
  <variable name="Y(523,3)" index="28190" value="1"/>
  <variable name="Y(556,10)" index="29979" value="1"/>
  <variable name="Y(576,4)" index="31053" value="1"/>
  <variable name="Y(614,16)" index="33117" value="1"/>
  <variable name="Y(656,6)" index="35375" value="1"/>
  <variable name="Y(673,23)" index="36310" value="1"/>
  <variable name="Y(687,11)" index="37054" value="1"/>
  <variable name="X(1,14,25)" index="37932" value="1"/>
  <variable name="X(1,29,157)" index="38766" value="1"/>
  <variable name="X(2,14,44)" index="39355" value="1"/>
  <variable name="X(2,30,418)" index="40431" value="1"/>
  <variable name="X(3,21,76)" index="40791" value="1"/>
  <variable name="X(3,31,523)" index="41940" value="1"/>
  <variable name="X(4,23,99)" index="42218" value="1"/>
  <variable name="X(4,32,576)" index="43397" value="1"/>
  <variable name="X(5,15,116)" index="43639" value="1"/>
  <variable name="X(5,33,369)" index="44594" value="1"/>
  <variable name="X(6,26,147)" index="45074" value="1"/>
  <variable name="X(6,34,656)" index="46285" value="1"/>
  <variable name="X(7,14,157)" index="46488" value="1"/>
  <variable name="X(7,35,345)" index="47378" value="1"/>
  <variable name="X(8,21,195)" index="47930" value="1"/>
  <variable name="X(8,36,450)" index="48887" value="1"/>
  <variable name="X(9,12,219)" index="49358" value="1"/>
  <variable name="X(9,37,347)" index="50188" value="1"/>
  <variable name="X(10,11,260)" index="50803" value="1"/>
  <variable name="X(10,23,673)" index="51918" value="1"/>
  <variable name="X(10,38,556)" index="52503" value="1"/>
  <variable name="X(11,10,673)" index="53322" value="1"/>
  <variable name="X(11,15,260)" index="53611" value="1"/>
  <variable name="X(11,39,687)" index="54740" value="1"/>
  <variable name="X(12,9,347)" index="55102" value="1"/>
  <variable name="X(12,25,302)" index="55759" value="1"/>
  <variable name="X(12,40,219)" index="56378" value="1"/>
  <variable name="X(13,25,335)" index="57196" value="1"/>
  <variable name="X(13,41,116)" index="57679" value="1"/>
  <variable name="X(14,1,157)" index="58422" value="1"/>
  <variable name="X(14,2,418)" index="59385" value="1"/>
  <variable name="X(14,7,345)" index="60014" value="1"/>
  <variable name="X(14,17,44)" index="60415" value="1"/>
  <variable name="X(14,21,147)" index="61220" value="1"/>
  <variable name="X(14,26,25)" index="61800" value="1"/>
  <variable name="X(14,42,195)" index="62672" value="1"/>
  <variable name="X(15,5,369)" index="63548" value="1"/>
  <variable name="X(15,11,687)" index="64568" value="1"/>
  <variable name="X(15,16,302)" index="64885" value="1"/>
  <variable name="X(15,21,260)" index="65545" value="1"/>
  <variable name="X(15,25,116)" index="66103" value="1"/>
  <variable name="X(15,43,483)" index="67172" value="1"/>
  <variable name="X(16,15,483)" index="67874" value="1"/>
  <variable name="X(16,17,302)" index="68395" value="1"/>
  <variable name="X(16,19,44)" index="68839" value="1"/>
  <variable name="X(16,21,410)" index="69907" value="1"/>
  <variable name="X(16,44,614)" index="70813" value="1"/>
  <variable name="X(17,14,418)" index="71319" value="1"/>
  <variable name="X(17,16,44)" index="71647" value="1"/>
  <variable name="X(17,45,302)" index="72607" value="1"/>
  <variable name="X(18,20,450)" index="73457" value="1"/>
  <variable name="X(18,46,147)" index="73856" value="1"/>
  <variable name="X(19,16,483)" index="74894" value="1"/>
  <variable name="X(19,47,44)" index="75157" value="1"/>
  <variable name="X(20,18,147)" index="75962" value="1"/>
  <variable name="X(20,21,450)" index="76967" value="1"/>
  <variable name="X(20,48,461)" index="77680" value="1"/>
  <variable name="X(21,3,523)" index="78444" value="1"/>
  <variable name="X(21,8,450)" index="79073" value="1"/>
  <variable name="X(21,14,195)" index="79520" value="1"/>
  <variable name="X(21,15,687)" index="80714" value="1"/>
  <variable name="X(21,16,614)" index="81343" value="1"/>
  <variable name="X(21,20,147)" index="81578" value="1"/>
  <variable name="X(21,24,335)" index="82468" value="1"/>
  <variable name="X(21,25,76)" index="82911" value="1"/>
  <variable name="X(21,27,260)" index="83797" value="1"/>
  <variable name="X(21,49,410)" index="84649" value="1"/>
  <variable name="X(22,23,556)" index="85497" value="1"/>
  <variable name="X(22,50,99)" index="85742" value="1"/>
  <variable name="X(23,4,576)" index="86921" value="1"/>
  <variable name="X(23,10,556)" index="87603" value="1"/>
  <variable name="X(23,22,99)" index="87848" value="1"/>
  <variable name="X(23,51,673)" index="89124" value="1"/>
  <variable name="X(24,21,614)" index="89767" value="1"/>
  <variable name="X(24,52,335)" index="90190" value="1"/>
  <variable name="X(25,12,347)" index="90904" value="1"/>
  <variable name="X(25,13,116)" index="91375" value="1"/>
  <variable name="X(25,15,302)" index="92263" value="1"/>
  <variable name="X(25,21,335)" index="92998" value="1"/>
  <variable name="X(25,53,76)" index="93441" value="1"/>
  <variable name="X(26,6,656)" index="94723" value="1"/>
  <variable name="X(26,14,147)" index="94916" value="1"/>
  <variable name="X(26,54,25)" index="95496" value="1"/>
  <variable name="X(27,21,687)" index="96860" value="1"/>
  <variable name="X(27,55,260)" index="97135" value="1"/>
 </variables>
</CPLEXSolution>
